DIMENSION: 100
7
26
61
32
24
29
18
49
93
4
60
46
12
40
53
1
85
27
15
79
13
67
64
20
55
42
47
31
65
80
77
30
68
2
35
6
54
75
8
22
62
83
72
50
86
71
38
39
28
98
17
25
90
34
58
88
56
5
43
95
94
91
76
70
23
21
89
41
59
73
3
69
14
99
19
92
10
74
57
36
100
33
45
81
97
96
87
52
11
84
48
66
44
63
51
16
37
9
78
82
